Route #1: 0 67 53 11 59 66 65 38 10 31 25 72 17 0
Route #2: 0 26 58 7 35 19 8 46 34 52 27 45 48 74 30 4 0
Route #3: 0 68 2 29 57 5 36 47 28 62 73 33 16 49 24 51 6 0
Route #4: 0 75 64 42 56 3 44 32 50 18 55 9 39 40 12 0
Route #5: 0 14 54 13 15 37 20 70 60 71 69 21 61 22 1 43 41 23 63 0
Cost 810:
